MATILDA_Graphs/g0058.col
c File: data_files/evolved_graphs/g0058.col
c
c Auto generated graph
c
p edge 100 2198
e 1 2
e 1 4
e 1 5
e 1 6
e 1 7
e 1 10
e 1 11
e 1 13
e 1 14
e 1 15
e 1 17
e 1 20
e 1 21
e 1 22
e 1 23
e 1 24
e 1 25
e 1 27
e 1 28
e 1 29
e 1 31
e 1 32
e 1 33
e 1 34
e 1 35
e 1 36
e 1 37
e 1 38
e 1 39
e 1 41
e 1 47
e 1 51
e 1 54
e 1 60
e 1 79
e 1 81
e 1 82
e 1 83
e 1 84
e 1 85
e 1 86
e 1 87
e 1 88
e 1 89
e 1 90
e 1 91
e 1 92
e 1 93
e 1 94
e 1 95
e 1 96
e 1 97
e 1 98
e 1 99
e 1 100
e 2 3
e 2 4
e 2 5
e 2 6
e 2 7
e 2 8
e 2 9
e 2 10
e 2 13
e 2 14
e 2 15
e 2 17
e 2 18
e 2 19
e 2 20
e 2 21
e 2 22
e 2 24
e 2 25
e 2 26
e 2 28
e 2 29
e 2 30
e 2 31
e 2 32
e 2 33
e 2 34
e 2 36
e 2 37
e 2 39
e 2 40
e 2 41
e 2 45
e 2 52
e 2 73
e 2 81
e 2 82
e 2 83
e 2 84
e 2 85
e 2 86
e 2 87
e 2 88
e 2 89
e 2 90
e 2 91
e 2 92
e 2 93
e 2 94
e 2 95
e 2 96
e 2 97
e 2 98
e 2 99
e 3 4
e 3 5
e 3 6
e 3 7
e 3 10
e 3 11
e 3 13
e 3 14
e 3 15
e 3 16
e 3 17
e 3 18
e 3 21
e 3 22
e 3 24
e 3 27
e 3 28
e 3 30
e 3 31
e 3 32
e 3 33
e 3 34
e 3 37
e 3 38
e 3 39
e 3 40
e 3 41
e 3 43
e 3 55
e 3 63
e 3 65
e 3 66
e 3 76
e 3 82
e 3 83
e 3 84
e 3 85
e 3 86
e 3 87
e 3 88
e 3 89
e 3 90
e 3 91
e 3 92
e 3 93
e 3 94
e 3 95
e 3 96
e 3 97
e 3 98
e 3 99
e 3 100
e 4 5
e 4 7
e 4 9
e 4 10
e 4 11
e 4 12
e 4 13
e 4 14
e 4 15
e 4 16
e 4 19
e 4 21
e 4 22
e 4 23
e 4 24
e 4 25
e 4 26
e 4 27
e 4 28
e 4 30
e 4 31
e 4 32
e 4 33
e 4 34
e 4 35
e 4 36
e 4 37
e 4 38
e 4 39
e 4 40
e 4 41
e 4 54
e 4 57
e 4 72
e 4 82
e 4 83
e 4 84
e 4 85
e 4 86
e 4 87
e 4 88
e 4 90
e 4 91
e 4 92
e 4 93
e 4 94
e 4 95
e 4 96
e 4 97
e 4 98
e 4 99
e 4 100
e 5 6
e 5 7
e 5 8
e 5 9
e 5 10
e 5 11
e 5 12
e 5 13
e 5 14
e 5 15
e 5 16
e 5 17
e 5 18
e 5 19
e 5 20
e 5 22
e 5 23
e 5 24
e 5 25
e 5 28
e 5 29
e 5 30
e 5 31
e 5 32
e 5 33
e 5 34
e 5 35
e 5 37
e 5 38
e 5 39
e 5 41
e 5 69
e 5 80
e 5 84
e 5 86
e 5 88
e 5 89
e 5 92
e 6 7
e 6 8
e 6 9
e 6 10
e 6 11
e 6 12
e 6 13
e 6 14
e 6 15
e 6 16
e 6 17
e 6 18
e 6 21
e 6 22
e 6 23
e 6 24
e 6 26
e 6 27
e 6 28
e 6 29
e 6 30
e 6 31
e 6 32
e 6 33
e 6 35
e 6 37
e 6 39
e 6 41
e 6 45
e 6 51
e 6 54
e 6 76
e 6 78
e 6 82
e 6 85
e 6 87
e 6 89
e 6 91
e 6 94
e 6 100
e 7 8
e 7 9
e 7 12
e 7 13
e 7 14
e 7 18
e 7 20
e 7 21
e 7 24
e 7 26
e 7 28
e 7 29
e 7 30
e 7 33
e 7 35
e 7 36
e 7 38
e 7 39
e 7 40
e 7 41
e 7 46
e 7 49
e 7 55
e 7 58
e 7 65
e 7 75
e 7 77
e 7 78
e 7 83
e 7 86
e 7 96
e 8 10
e 8 11
e 8 12
e 8 13
e 8 14
e 8 15
e 8 16
e 8 17
e 8 18
e 8 21
e 8 22
e 8 23
e 8 24
e 8 26
e 8 27
e 8 28
e 8 29
e 8 30
e 8 31
e 8 32
e 8 33
e 8 34
e 8 35
e 8 36
e 8 38
e 8 39
e 8 40
e 8 41
e 8 44
e 8 45
e 8 58
e 8 59
e 8 67
e 8 85
e 8 90
e 8 92
e 8 93
e 8 95
e 8 96
e 8 97
e 8 98
e 9 10
e 9 11
e 9 12
e 9 13
e 9 14
e 9 16
e 9 17
e 9 18
e 9 19
e 9 21
e 9 22
e 9 23
e 9 24
e 9 25
e 9 26
e 9 28
e 9 29
e 9 31
e 9 32
e 9 33
e 9 35
e 9 38
e 9 39
e 9 40
e 9 41
e 9 46
e 9 55
e 9 58
e 9 77
e 9 82
e 9 83
e 9 86
e 9 87
e 9 88
e 9 90
e 9 91
e 9 95
e 10 11
e 10 12
e 10 13
e 10 14
e 10 16
e 10 17
e 10 18
e 10 20
e 10 21
e 10 22
e 10 23
e 10 25
e 10 26
e 10 27
e 10 28
e 10 30
e 10 32
e 10 33
e 10 34
e 10 36
e 10 38
e 10 42
e 10 49
e 10 50
e 10 56
e 10 57
e 10 71
e 10 83
e 10 85
e 10 91
e 10 93
e 10 95
e 10 96
e 10 99
e 11 12
e 11 14
e 11 15
e 11 16
e 11 17
e 11 18
e 11 19
e 11 20
e 11 21
e 11 22
e 11 23
e 11 24
e 11 25
e 11 26
e 11 27
e 11 28
e 11 29
e 11 31
e 11 33
e 11 34
e 11 35
e 11 37
e 11 38
e 11 41
e 11 86
e 11 88
e 11 90
e 11 91
e 11 92
e 11 93
e 11 96
e 11 97
e 11 100
e 12 13
e 12 14
e 12 16
e 12 17
e 12 19
e 12 20
e 12 21
e 12 22
e 12 23
e 12 24
e 12 25
e 12 26
e 12 27
e 12 29
e 12 30
e 12 31
e 12 33
e 12 34
e 12 35
e 12 36
e 12 37
e 12 39
e 12 41
e 12 71
e 12 81
e 12 82
e 12 83
e 12 84
e 12 86
e 12 88
e 12 89
e 12 91
e 12 92
e 12 94
e 12 96
e 12 98
e 12 99
e 12 100
e 13 14
e 13 15
e 13 16
e 13 17
e 13 19
e 13 20
e 13 21
e 13 23
e 13 24
e 13 26
e 13 27
e 13 28
e 13 29
e 13 30
e 13 31
e 13 32
e 13 33
e 13 34
e 13 35
e 13 36
e 13 37
e 13 38
e 13 39
e 13 40
e 13 41
e 13 46
e 13 58
e 13 81
e 13 85
e 13 86
e 13 88
e 13 89
e 13 91
e 13 93
e 13 95
e 13 96
e 13 97
e 13 98
e 13 99
e 13 100
e 14 15
e 14 17
e 14 19
e 14 20
e 14 21
e 14 22
e 14 23
e 14 24
e 14 25
e 14 27
e 14 28
e 14 30
e 14 31
e 14 32
e 14 33
e 14 34
e 14 35
e 14 36
e 14 37
e 14 38
e 14 41
e 14 53
e 14 58
e 14 61
e 14 82
e 14 83
e 14 84
e 14 89
e 14 90
e 14 91
e 14 95
e 14 96
e 14 98
e 14 100
e 15 16
e 15 17
e 15 18
e 15 19
e 15 20
e 15 21
e 15 22
e 15 24
e 15 25
e 15 26
e 15 28
e 15 29
e 15 30
e 15 31
e 15 32
e 15 33
e 15 38
e 15 39
e 15 40
e 15 41
e 15 42
e 15 52
e 15 54
e 15 74
e 15 81
e 15 83
e 15 84
e 15 92
e 15 93
e 15 97
e 16 17
e 16 18
e 16 19
e 16 20
e 16 21
e 16 22
e 16 23
e 16 24
e 16 25
e 16 26
e 16 27
e 16 28
e 16 29
e 16 30
e 16 31
e 16 33
e 16 34
e 16 36
e 16 40
e 16 41
e 16 68
e 16 86
e 16 87
e 16 88
e 16 89
e 16 90
e 16 95
e 16 96
e 16 97
e 16 98
e 16 100
e 17 18
e 17 19
e 17 20
e 17 22
e 17 24
e 17 25
e 17 27
e 17 28
e 17 29
e 17 30
e 17 31
e 17 32
e 17 33
e 17 34
e 17 35
e 17 40
e 17 41
e 17 46
e 17 50
e 17 57
e 17 65
e 17 78
e 17 79
e 17 81
e 17 84
e 17 85
e 17 87
e 17 90
e 17 92
e 17 95
e 18 22
e 18 23
e 18 24
e 18 25
e 18 26
e 18 27
e 18 28
e 18 29
e 18 30
e 18 31
e 18 32
e 18 34
e 18 35
e 18 36
e 18 37
e 18 39
e 18 40
e 18 42
e 18 48
e 18 57
e 18 77
e 18 84
e 18 85
e 18 86
e 18 89
e 18 93
e 18 95
e 18 97
e 19 20
e 19 22
e 19 23
e 19 24
e 19 25
e 19 26
e 19 27
e 19 28
e 19 30
e 19 31
e 19 33
e 19 34
e 19 35
e 19 36
e 19 37
e 19 39
e 19 40
e 19 41
e 19 55
e 19 60
e 19 73
e 19 78
e 19 86
e 19 88
e 19 89
e 19 90
e 19 91
e 19 95
e 19 97
e 20 21
e 20 22
e 20 23
e 20 24
e 20 25
e 20 26
e 20 27
e 20 28
e 20 29
e 20 30
e 20 31
e 20 33
e 20 34
e 20 35
e 20 36
e 20 37
e 20 38
e 20 39
e 20 40
e 20 41
e 20 44
e 20 45
e 20 69
e 20 71
e 20 83
e 20 86
e 20 91
e 20 92
e 20 95
e 20 100
e 21 22
e 21 23
e 21 24
e 21 25
e 21 26
e 21 27
e 21 28
e 21 29
e 21 30
e 21 32
e 21 33
e 21 34
e 21 35
e 21 36
e 21 38
e 21 39
e 21 41
e 21 54
e 21 57
e 21 72
e 21 88
e 21 89
e 21 92
e 21 93
e 21 94
e 21 96
e 22 25
e 22 26
e 22 27
e 22 28
e 22 30
e 22 32
e 22 33
e 22 34
e 22 36
e 22 37
e 22 38
e 22 39
e 22 40
e 22 41
e 22 51
e 22 54
e 22 65
e 22 79
e 22 84
e 22 85
e 22 86
e 22 87
e 22 88
e 22 89
e 22 92
e 22 93
e 22 94
e 22 95
e 22 98
e 22 100
e 23 25
e 23 27
e 23 29
e 23 30
e 23 32
e 23 34
e 23 35
e 23 36
e 23 37
e 23 39
e 23 40
e 23 53
e 23 64
e 23 68
e 23 73
e 23 76
e 23 78
e 23 83
e 23 91
e 23 97
e 24 25
e 24 27
e 24 28
e 24 29
e 24 30
e 24 31
e 24 32
e 24 33
e 24 35
e 24 36
e 24 37
e 24 38
e 24 39
e 24 41
e 24 46
e 24 53
e 24 54
e 24 67
e 24 86
e 24 90
e 24 91
e 24 93
e 24 97
e 25 26
e 25 27
e 25 28
e 25 29
e 25 30
e 25 31
e 25 32
e 25 33
e 25 34
e 25 35
e 25 38
e 25 39
e 25 41
e 25 67
e 25 70
e 25 71
e 25 82
e 25 93
e 25 94
e 25 97
e 25 100
e 26 27
e 26 28
e 26 29
e 26 30
e 26 31
e 26 32
e 26 33
e 26 35
e 26 36
e 26 37
e 26 38
e 26 44
e 26 47
e 26 48
e 26 52
e 26 55
e 26 68
e 26 78
e 26 81
e 26 88
e 26 90
e 26 91
e 26 93
e 26 94
e 26 95
e 26 97
e 26 99
e 27 28
e 27 29
e 27 30
e 27 31
e 27 32
e 27 33
e 27 34
e 27 35
e 27 36
e 27 37
e 27 38
e 27 39
e 27 40
e 27 53
e 27 57
e 27 64
e 27 75
e 27 89
e 27 90
e 27 91
e 27 94
e 27 95
e 28 29
e 28 30
e 28 31
e 28 32
e 28 34
e 28 35
e 28 36
e 28 37
e 28 38
e 28 39
e 28 40
e 28 42
e 28 43
e 28 44
e 28 77
e 28 84
e 28 85
e 28 86
e 28 87
e 28 90
e 28 92
e 28 93
e 28 94
e 28 95
e 28 96
e 28 98
e 29 30
e 29 32
e 29 34
e 29 35
e 29 36
e 29 37
e 29 39
e 29 40
e 29 56
e 29 57
e 29 58
e 29 66
e 29 69
e 29 74
e 29 78
e 29 88
e 29 91
e 29 93
e 29 96
e 30 31
e 30 32
e 30 33
e 30 35
e 30 37
e 30 38
e 30 39
e 30 41
e 30 60
e 30 67
e 30 76
e 30 82
e 30 83
e 30 86
e 30 89
e 30 93
e 30 95
e 30 96
e 30 98
e 31 32
e 31 34
e 31 36
e 31 39
e 31 40
e 31 41
e 31 44
e 31 46
e 31 50
e 31 55
e 31 61
e 31 76
e 31 81
e 31 83
e 31 89
e 31 90
e 31 92
e 31 95
e 31 97
e 31 99
e 31 100
e 32 33
e 32 34
e 32 35
e 32 36
e 32 39
e 32 40
e 32 44
e 32 52
e 32 62
e 32 64
e 32 71
e 32 79
e 32 85
e 32 87
e 32 88
e 32 92
e 32 93
e 32 94
e 32 95
e 33 34
e 33 35
e 33 36
e 33 37
e 33 38
e 33 40
e 33 47
e 33 48
e 33 49
e 33 65
e 33 77
e 33 83
e 33 84
e 33 89
e 33 91
e 33 94
e 34 37
e 34 38
e 34 39
e 34 40
e 34 41
e 34 47
e 34 54
e 34 66
e 34 79
e 34 84
e 34 86
e 34 94
e 34 97
e 35 36
e 35 37
e 35 38
e 35 39
e 35 40
e 35 49
e 35 67
e 35 70
e 35 74
e 35 81
e 35 82
e 35 87
e 35 90
e 35 97
e 35 98
e 36 38
e 36 40
e 36 41
e 36 58
e 36 65
e 36 75
e 36 83
e 36 85
e 36 87
e 36 88
e 36 93
e 36 97
e 37 38
e 37 39
e 37 40
e 37 41
e 37 56
e 37 59
e 37 60
e 37 62
e 37 72
e 37 74
e 37 79
e 37 81
e 37 82
e 37 84
e 37 87
e 37 88
e 37 89
e 37 96
e 37 98
e 38 39
e 38 40
e 38 41
e 38 50
e 38 62
e 38 65
e 38 66
e 38 68
e 38 78
e 38 84
e 38 85
e 38 86
e 38 87
e 38 88
e 38 89
e 38 90
e 38 92
e 38 94
e 38 99
e 39 40
e 39 41
e 39 48
e 39 75
e 39 82
e 39 84
e 39 86
e 39 87
e 39 92
e 39 93
e 39 94
e 39 95
e 39 96
e 39 98
e 40 41
e 40 50
e 40 61
e 40 62
e 40 82
e 40 89
e 40 90
e 40 94
e 40 97
e 40 98
e 40 99
e 41 42
e 41 49
e 41 53
e 41 59
e 41 65
e 41 67
e 41 70
e 41 76
e 41 78
e 41 83
e 41 89
e 41 98
e 42 43
e 42 45
e 42 46
e 42 49
e 42 53
e 42 54
e 42 55
e 42 56
e 42 57
e 42 60
e 42 61
e 42 62
e 42 63
e 42 65
e 42 66
e 42 68
e 42 69
e 42 70
e 42 72
e 42 73
e 42 74
e 42 76
e 42 77
e 42 78
e 42 79
e 42 80
e 42 81
e 42 82
e 42 83
e 42 84
e 42 86
e 42 87
e 42 89
e 42 94
e 42 97
e 43 44
e 43 45
e 43 46
e 43 47
e 43 49
e 43 50
e 43 51
e 43 52
e 43 53
e 43 54
e 43 55
e 43 56
e 43 57
e 43 59
e 43 60
e 43 61
e 43 62
e 43 63
e 43 65
e 43 66
e 43 67
e 43 68
e 43 71
e 43 74
e 43 79
e 43 80
e 43 81
e 43 87
e 43 92
e 43 94
e 43 95
e 43 97
e 43 98
e 44 45
e 44 47
e 44 48
e 44 49
e 44 50
e 44 51
e 44 52
e 44 53
e 44 54
e 44 55
e 44 56
e 44 58
e 44 59
e 44 60
e 44 61
e 44 63
e 44 64
e 44 65
e 44 66
e 44 67
e 44 68
e 44 69
e 44 70
e 44 71
e 44 72
e 44 74
e 44 75
e 44 76
e 44 77
e 44 80
e 44 82
e 44 88
e 44 89
e 44 90
e 44 92
e 44 100
e 45 46
e 45 47
e 45 49
e 45 51
e 45 52
e 45 53
e 45 54
e 45 55
e 45 56
e 45 57
e 45 58
e 45 61
e 45 62
e 45 64
e 45 65
e 45 70
e 45 71
e 45 73
e 45 74
e 45 76
e 45 78
e 45 80
e 45 81
e 45 82
e 45 84
e 45 85
e 45 86
e 45 91
e 45 97
e 45 99
e 46 52
e 46 53
e 46 54
e 46 55
e 46 56
e 46 58
e 46 59
e 46 60
e 46 61
e 46 62
e 46 63
e 46 64
e 46 65
e 46 66
e 46 67
e 46 69
e 46 70
e 46 71
e 46 72
e 46 73
e 46 75
e 46 77
e 46 78
e 46 79
e 46 80
e 46 81
e 46 83
e 46 92
e 46 93
e 46 95
e 46 98
e 46 99
e 47 48
e 47 49
e 47 50
e 47 51
e 47 52
e 47 53
e 47 54
e 47 55
e 47 56
e 47 57
e 47 58
e 47 59
e 47 60
e 47 61
e 47 62
e 47 63
e 47 64
e 47 65
e 47 66
e 47 68
e 47 69
e 47 71
e 47 74
e 47 77
e 47 78
e 47 80
e 47 81
e 47 83
e 47 84
e 47 87
e 47 89
e 47 92
e 47 93
e 47 94
e 47 96
e 47 98
e 48 49
e 48 50
e 48 51
e 48 52
e 48 56
e 48 58
e 48 59
e 48 61
e 48 63
e 48 64
e 48 66
e 48 67
e 48 68
e 48 69
e 48 70
e 48 71
e 48 72
e 48 73
e 48 77
e 48 78
e 48 79
e 48 80
e 48 81
e 48 83
e 48 84
e 48 88
e 48 92
e 48 93
e 48 97
e 49 50
e 49 52
e 49 53
e 49 54
e 49 56
e 49 57
e 49 59
e 49 60
e 49 61
e 49 62
e 49 63
e 49 64
e 49 65
e 49 67
e 49 68
e 49 69
e 49 70
e 49 72
e 49 73
e 49 74
e 49 75
e 49 76
e 49 78
e 49 80
e 49 81
e 49 83
e 49 84
e 49 88
e 49 91
e 49 92
e 49 97
e 49 99
e 49 100
e 50 51
e 50 52
e 50 53
e 50 54
e 50 55
e 50 57
e 50 58
e 50 60
e 50 61
e 50 62
e 50 64
e 50 65
e 50 67
e 50 68
e 50 69
e 50 72
e 50 74
e 50 75
e 50 76
e 50 77
e 50 79
e 50 80
e 50 81
e 50 84
e 50 87
e 50 91
e 50 94
e 50 95
e 50 97
e 51 52
e 51 53
e 51 54
e 51 55
e 51 56
e 51 57
e 51 58
e 51 59
e 51 61
e 51 62
e 51 63
e 51 65
e 51 66
e 51 67
e 51 68
e 51 70
e 51 72
e 51 73
e 51 74
e 51 75
e 51 76
e 51 77
e 51 79
e 51 80
e 51 82
e 51 84
e 51 85
e 51 86
e 51 87
e 51 89
e 51 93
e 51 95
e 51 96
e 51 97
e 52 54
e 52 55
e 52 57
e 52 58
e 52 59
e 52 60
e 52 61
e 52 63
e 52 64
e 52 65
e 52 66
e 52 68
e 52 71
e 52 72
e 52 73
e 52 74
e 52 76
e 52 77
e 52 78
e 52 79
e 52 80
e 52 81
e 52 83
e 52 85
e 52 87
e 52 88
e 52 90
e 52 91
e 52 92
e 52 93
e 52 94
e 52 97
e 52 98
e 53 54
e 53 55
e 53 56
e 53 57
e 53 58
e 53 60
e 53 61
e 53 62
e 53 63
e 53 64
e 53 65
e 53 66
e 53 69
e 53 70
e 53 71
e 53 72
e 53 74
e 53 75
e 53 77
e 53 78
e 53 79
e 53 80
e 53 82
e 53 86
e 53 99
e 54 55
e 54 56
e 54 57
e 54 58
e 54 59
e 54 61
e 54 62
e 54 63
e 54 64
e 54 65
e 54 66
e 54 67
e 54 69
e 54 71
e 54 72
e 54 73
e 54 74
e 54 75
e 54 76
e 54 77
e 54 78
e 54 79
e 54 80
e 54 81
e 54 82
e 54 86
e 54 87
e 54 88
e 54 90
e 54 92
e 54 98
e 54 99
e 55 56
e 55 57
e 55 58
e 55 59
e 55 61
e 55 62
e 55 63
e 55 64
e 55 66
e 55 67
e 55 68
e 55 70
e 55 71
e 55 72
e 55 73
e 55 74
e 55 75
e 55 76
e 55 78
e 55 79
e 55 81
e 55 85
e 55 86
e 55 88
e 55 89
e 55 93
e 55 96
e 55 97
e 55 98
e 55 99
e 56 57
e 56 58
e 56 59
e 56 60
e 56 61
e 56 62
e 56 63
e 56 65
e 56 66
e 56 70
e 56 71
e 56 72
e 56 73
e 56 74
e 56 75
e 56 76
e 56 77
e 56 78
e 56 79
e 56 80
e 56 82
e 56 89
e 56 90
e 56 91
e 56 92
e 56 96
e 56 98
e 56 99
e 57 58
e 57 59
e 57 60
e 57 61
e 57 63
e 57 65
e 57 66
e 57 67
e 57 68
e 57 72
e 57 73
e 57 74
e 57 75
e 57 77
e 57 78
e 57 79
e 57 80
e 57 81
e 57 82
e 57 86
e 57 88
e 57 95
e 57 97
e 57 98
e 57 100
e 58 59
e 58 60
e 58 61
e 58 62
e 58 63
e 58 64
e 58 66
e 58 67
e 58 68
e 58 69
e 58 70
e 58 72
e 58 73
e 58 74
e 58 77
e 58 78
e 58 79
e 58 81
e 58 82
e 58 85
e 58 86
e 58 91
e 58 92
e 58 93
e 58 95
e 58 96
e 59 60
e 59 61
e 59 62
e 59 63
e 59 64
e 59 65
e 59 66
e 59 68
e 59 69
e 59 73
e 59 74
e 59 75
e 59 76
e 59 78
e 59 79
e 59 80
e 59 81
e 59 82
e 59 84
e 59 86
e 59 91
e 59 93
e 59 96
e 59 97
e 59 99
e 59 100
e 60 63
e 60 64
e 60 65
e 60 66
e 60 67
e 60 69
e 60 70
e 60 71
e 60 72
e 60 73
e 60 74
e 60 75
e 60 76
e 60 77
e 60 78
e 60 79
e 60 80
e 60 81
e 60 82
e 60 84
e 60 85
e 60 87
e 60 93
e 60 94
e 60 100
e 61 62
e 61 63
e 61 64
e 61 66
e 61 67
e 61 68
e 61 70
e 61 71
e 61 72
e 61 73
e 61 74
e 61 76
e 61 77
e 61 78
e 61 79
e 61 80
e 61 81
e 61 86
e 61 89
e 61 92
e 61 97
e 61 99
e 61 100
e 62 63
e 62 65
e 62 66
e 62 67
e 62 68
e 62 69
e 62 70
e 62 73
e 62 74
e 62 75
e 62 76
e 62 77
e 62 80
e 62 81
e 62 83
e 62 84
e 62 85
e 62 86
e 62 96
e 62 97
e 62 98
e 62 100
e 63 64
e 63 67
e 63 69
e 63 70
e 63 71
e 63 72
e 63 73
e 63 74
e 63 75
e 63 76
e 63 77
e 63 78
e 63 79
e 63 80
e 63 82
e 63 84
e 63 87
e 63 91
e 63 92
e 63 93
e 63 97
e 63 99
e 64 65
e 64 67
e 64 70
e 64 71
e 64 72
e 64 74
e 64 75
e 64 78
e 64 80
e 64 81
e 64 84
e 64 87
e 64 89
e 64 92
e 64 96
e 64 97
e 64 98
e 64 99
e 65 67
e 65 68
e 65 70
e 65 72
e 65 73
e 65 74
e 65 75
e 65 76
e 65 77
e 65 78
e 65 79
e 65 80
e 65 81
e 65 82
e 65 83
e 65 84
e 65 85
e 65 87
e 65 92
e 65 93
e 65 94
e 65 96
e 65 99
e 66 67
e 66 68
e 66 69
e 66 71
e 66 72
e 66 73
e 66 74
e 66 75
e 66 76
e 66 77
e 66 78
e 66 80
e 66 81
e 66 82
e 66 83
e 66 90
e 66 91
e 66 99
e 67 68
e 67 69
e 67 71
e 67 72
e 67 73
e 67 74
e 67 75
e 67 76
e 67 77
e 67 78
e 67 79
e 67 80
e 67 81
e 67 83
e 67 86
e 67 87
e 67 89
e 67 94
e 67 97
e 67 100
e 68 70
e 68 71
e 68 72
e 68 75
e 68 76
e 68 77
e 68 78
e 68 80
e 68 81
e 68 87
e 68 88
e 68 89
e 68 94
e 68 95
e 68 97
e 69 70
e 69 71
e 69 73
e 69 74
e 69 75
e 69 76
e 69 78
e 69 79
e 69 84
e 69 86
e 69 87
e 69 88
e 69 90
e 69 99
e 70 71
e 70 73
e 70 74
e 70 75
e 70 76
e 70 77
e 70 78
e 70 79
e 70 80
e 70 86
e 70 87
e 70 91
e 70 93
e 70 97
e 70 100
e 71 72
e 71 73
e 71 75
e 71 76
e 71 79
e 71 80
e 71 81
e 71 82
e 71 85
e 71 87
e 71 90
e 71 91
e 71 95
e 71 96
e 71 97
e 72 73
e 72 76
e 72 77
e 72 78
e 72 79
e 72 80
e 72 82
e 72 85
e 72 86
e 72 88
e 72 90
e 72 92
e 72 94
e 72 98
e 73 74
e 73 76
e 73 77
e 73 78
e 73 79
e 73 80
e 73 81
e 73 82
e 73 84
e 73 89
e 73 97
e 74 75
e 74 76
e 74 78
e 74 79
e 74 80
e 74 81
e 74 84
e 74 85
e 74 87
e 74 88
e 74 90
e 74 91
e 74 93
e 74 95
e 74 97
e 75 76
e 75 78
e 75 79
e 75 80
e 75 82
e 75 88
e 75 90
e 75 91
e 75 92
e 75 93
e 75 96
e 75 97
e 75 99
e 76 77
e 76 78
e 76 80
e 76 81
e 76 85
e 76 87
e 76 90
e 76 91
e 76 92
e 76 95
e 76 96
e 76 98
e 77 78
e 77 79
e 77 80
e 77 81
e 77 83
e 77 86
e 77 87
e 77 88
e 77 92
e 77 93
e 77 96
e 77 99
e 78 79
e 78 80
e 78 81
e 78 82
e 78 83
e 78 84
e 78 85
e 78 86
e 78 87
e 78 92
e 78 93
e 78 96
e 78 98
e 78 99
e 79 81
e 79 83
e 79 86
e 79 88
e 79 90
e 79 92
e 79 100
e 80 81
e 80 83
e 80 84
e 80 86
e 80 87
e 80 88
e 80 89
e 80 91
e 80 92
e 80 93
e 80 94
e 80 95
e 80 96
e 81 82
e 81 84
e 81 85
e 81 86
e 81 87
e 81 93
e 81 94
e 81 95
e 81 99
e 82 83
e 82 84
e 82 85
e 82 87
e 82 88
e 82 89
e 82 90
e 82 91
e 82 92
e 82 93
e 82 94
e 82 95
e 82 97
e 82 100
e 83 84
e 83 85
e 83 86
e 83 88
e 83 89
e 83 91
e 83 92
e 83 93
e 83 94
e 83 95
e 83 96
e 83 97
e 83 98
e 84 85
e 84 86
e 84 87
e 84 89
e 84 90
e 84 91
e 84 93
e 84 95
e 84 96
e 84 99
e 84 100
e 85 86
e 85 87
e 85 89
e 85 91
e 85 92
e 85 93
e 85 94
e 85 95
e 85 98
e 85 99
e 86 87
e 86 88
e 86 89
e 86 90
e 86 92
e 86 94
e 86 95
e 86 96
e 86 97
e 86 99
e 86 100
e 87 88
e 87 89
e 87 90
e 87 91
e 87 92
e 87 93
e 87 95
e 87 97
e 87 98
e 88 89
e 88 90
e 88 92
e 88 93
e 88 94
e 88 95
e 88 96
e 88 97
e 88 98
e 88 99
e 88 100
e 89 90
e 89 91
e 89 92
e 89 93
e 89 94
e 89 95
e 89 97
e 89 98
e 89 99
e 89 100
e 90 91
e 90 92
e 90 93
e 90 94
e 90 95
e 90 96
e 90 97
e 90 98
e 90 99
e 90 100
e 91 94
e 91 95
e 91 96
e 91 97
e 91 98
e 91 99
e 92 93
e 92 96
e 92 97
e 92 98
e 92 99
e 92 100
e 93 94
e 93 95
e 93 96
e 93 97
e 93 98
e 93 99
e 93 100
e 94 95
e 94 96
e 94 97
e 94 98
e 94 100
e 95 96
e 95 97
e 95 98
e 95 99
e 95 100
e 96 97
e 96 100
e 97 98
e 97 99
e 97 100
e 98 99
e 99 100
