MATILDA_Graphs/g0058.sol
SET_INDEX
29
5050
5455
8093
8734
10744
12809
15295
17555
19829
21063
22465
23189
23942
25282
EOF
